; benchmark generated from python API
(set-info :status unknown)
(declare-fun strlen_72_64 () (_ BitVec 64))
(declare-fun args_0_8 () (_ BitVec 8))
(declare-fun strlen_75_64 () (_ BitVec 64))
(declare-fun args_1_8 () (_ BitVec 8))
(declare-fun sigaction_oldact_171_1216 () (_ BitVec 1216))
(declare-fun sigaction_oldact_176_1216 () (_ BitVec 1216))
(declare-fun sigaction_oldact_187_1216 () (_ BitVec 1216))
(declare-fun sigaction_oldact_204_1216 () (_ BitVec 1216))
(declare-fun sigaction_oldact_240_1216 () (_ BitVec 1216))
(declare-fun sigaction_oldact_305_1216 () (_ BitVec 1216))
(declare-fun sigaction_oldact_438_1216 () (_ BitVec 1216))
(declare-fun sigaction_oldact_707_1216 () (_ BitVec 1216))
(declare-fun sigaction_oldact_1251_1216 () (_ BitVec 1216))
(declare-fun sigaction_oldact_2364_1216 () (_ BitVec 1216))
(assert
 (let (($x351 (= (_ bv1 64) strlen_72_64)))
 (not $x351)))
(assert
 (let ((?x82 (bvadd (_ bv576460752303357824 64) strlen_72_64)))
 (let (($x69 (= (_ bv0 8) args_0_8)))
 (let ((?x46 (ite $x69 (_ bv576460752303357824 64) (_ bv576460752303357825 64))))
 (= ?x46 ?x82)))))
(assert
 (let (($x347 (= (_ bv0 8) args_1_8)))
 (let ((?x355 (ite $x347 (_ bv576460752303357826 64) (_ bv576460752303357827 64))))
 (let ((?x356 (bvsub ?x355 (_ bv576460752303357826 64))))
 (= ?x356 strlen_75_64)))))
(assert
 (let ((?x1831 ((_ extract 127 120) sigaction_oldact_171_1216)))
 (let ((?x2319 (bvand ?x1831 (_ bv4 8))))
 (and (distinct (_ bv0 8) ?x2319) true))))
(assert
 (let ((?x2276 ((_ extract 127 120) sigaction_oldact_176_1216)))
 (let ((?x2398 (bvand ?x2276 (_ bv4 8))))
 (and (distinct (_ bv0 8) ?x2398) true))))
(assert
 (let ((?x2885 ((_ extract 127 120) sigaction_oldact_187_1216)))
 (let ((?x2910 (bvand ?x2885 (_ bv4 8))))
 (and (distinct (_ bv0 8) ?x2910) true))))
(assert
 (let ((?x4024 ((_ extract 127 120) sigaction_oldact_204_1216)))
 (let ((?x4067 (bvand ?x4024 (_ bv4 8))))
 (and (distinct (_ bv0 8) ?x4067) true))))
(assert
 (let ((?x6270 ((_ extract 127 120) sigaction_oldact_240_1216)))
 (let ((?x6295 (bvand ?x6270 (_ bv4 8))))
 (= (_ bv0 8) ?x6295))))
(assert
 (let ((?x10725 ((_ extract 127 120) sigaction_oldact_305_1216)))
 (let ((?x10735 (bvand ?x10725 (_ bv4 8))))
 (and (distinct (_ bv0 8) ?x10735) true))))
(assert
 (let ((?x20861 ((_ extract 127 120) sigaction_oldact_438_1216)))
 (let ((?x20901 (bvand ?x20861 (_ bv4 8))))
 (and (distinct (_ bv0 8) ?x20901) true))))
(assert
 (let ((?x39894 ((_ extract 127 120) sigaction_oldact_707_1216)))
 (let ((?x39919 (bvand ?x39894 (_ bv4 8))))
 (and (distinct (_ bv0 8) ?x39919) true))))
(assert
 (let ((?x72732 ((_ extract 127 120) sigaction_oldact_1251_1216)))
 (let ((?x33881 (bvand ?x72732 (_ bv4 8))))
 (and (distinct (_ bv0 8) ?x33881) true))))
(assert
 (let ((?x101751 ((_ extract 127 120) sigaction_oldact_2364_1216)))
 (let ((?x101786 (bvand ?x101751 (_ bv4 8))))
 (and (distinct (_ bv0 8) ?x101786) true))))
(maximize sigaction_oldact_171_1216)
(maximize sigaction_oldact_187_1216)
(maximize args_0_8)
(minimize sigaction_oldact_438_1216)
(minimize sigaction_oldact_1251_1216)
(maximize sigaction_oldact_2364_1216)
(maximize sigaction_oldact_204_1216)
(maximize sigaction_oldact_176_1216)
(maximize strlen_75_64)
(maximize sigaction_oldact_1251_1216)
(maximize sigaction_oldact_240_1216)
(minimize args_1_8)
(minimize sigaction_oldact_305_1216)
(minimize strlen_72_64)
(maximize strlen_72_64)
(minimize sigaction_oldact_171_1216)
(maximize sigaction_oldact_305_1216)
(minimize args_0_8)
(minimize sigaction_oldact_187_1216)
(minimize strlen_75_64)
(minimize sigaction_oldact_240_1216)
(minimize sigaction_oldact_176_1216)
(minimize sigaction_oldact_707_1216)
(minimize sigaction_oldact_204_1216)
(maximize args_1_8)
(minimize sigaction_oldact_2364_1216)
(maximize sigaction_oldact_707_1216)
(maximize sigaction_oldact_438_1216)
(check-sat)
(get-objectives)
